Optimize a model with 4489252 rows, 2635847 columns and 15982956 nonzeros
Model has 1560 quadratic objective terms
Coefficient statistics:
  Matrix range    [1e+00, 7e+02]
  Objective range [1e+02, 7e+02]
  Bounds range    [1e+00, 1e+05]
  RHS range       [1e+00, 8e+03]
Presolve removed 227012 rows and 171392 columns (presolve time = 6s) ...
Presolve removed 236612 rows and 180953 columns (presolve time = 18s) ...
Presolve removed 236612 rows and 217765 columns (presolve time = 20s) ...
Presolve removed 236612 rows and 217765 columns (presolve time = 25s) ...
Presolve removed 236612 rows and 217765 columns (presolve time = 30s) ...
Presolve removed 236612 rows and 217765 columns (presolve time = 35s) ...
Presolve removed 236612 rows and 217765 columns (presolve time = 40s) ...
Presolve removed 273463 rows and 254616 columns (presolve time = 45s) ...
Presolve removed 273463 rows and 254616 columns (presolve time = 50s) ...
Presolve removed 288800 rows and 254616 columns (presolve time = 56s) ...
Presolve removed 288800 rows and 254616 columns (presolve time = 60s) ...
Presolve removed 288800 rows and 254616 columns (presolve time = 65s) ...
Presolve removed 288800 rows and 254616 columns (presolve time = 70s) ...
Presolve removed 299070 rows and 254616 columns (presolve time = 75s) ...
Presolve removed 308278 rows and 254616 columns (presolve time = 80s) ...
Presolve removed 310222 rows and 254616 columns (presolve time = 85s) ...
Presolve removed 310222 rows and 254616 columns (presolve time = 90s) ...
Presolve removed 310222 rows and 254616 columns (presolve time = 95s) ...
Presolve removed 310222 rows and 254616 columns (presolve time = 100s) ...
Presolve removed 310222 rows and 254616 columns (presolve time = 105s) ...
Presolve removed 310222 rows and 254616 columns (presolve time = 110s) ...
Presolve removed 310222 rows and 254616 columns (presolve time = 115s) ...
Presolve removed 310222 rows and 254616 columns (presolve time = 120s) ...
Presolve removed 310222 rows and 254616 columns (presolve time = 125s) ...
Presolve removed 404776 rows and 283493 columns (presolve time = 138s) ...
Presolve removed 411041 rows and 320000 columns (presolve time = 141s) ...
Presolve removed 493291 rows and 344375 columns (presolve time = 153s) ...
Presolve removed 493291 rows and 344375 columns (presolve time = 158s) ...
Presolve removed 493291 rows and 344375 columns (presolve time = 171s) ...
Presolve removed 493291 rows and 344375 columns (presolve time = 175s) ...
Presolve removed 493291 rows and 344375 columns (presolve time = 180s) ...
Presolve removed 493291 rows and 344375 columns (presolve time = 185s) ...
Presolve removed 493291 rows and 344375 columns (presolve time = 190s) ...
Presolve removed 493291 rows and 344375 columns (presolve time = 195s) ...
Presolve removed 493291 rows and 344375 columns (presolve time = 200s) ...
Presolve removed 493291 rows and 344375 columns (presolve time = 205s) ...
Presolve removed 493291 rows and 344375 columns (presolve time = 210s) ...
Presolve removed 493291 rows and 344375 columns (presolve time = 215s) ...
Presolve removed 493291 rows and 344375 columns (presolve time = 220s) ...
Presolve removed 493291 rows and 344375 columns (presolve time = 225s) ...
Presolve removed 493291 rows and 344375 columns (presolve time = 230s) ...
Presolve removed 493291 rows and 344375 columns (presolve time = 235s) ...
Presolve removed 493291 rows and 344375 columns (presolve time = 240s) ...
Presolve removed 493291 rows and 344375 columns (presolve time = 245s) ...
Presolve removed 493291 rows and 344375 columns (presolve time = 250s) ...
Presolve removed 493291 rows and 344375 columns (presolve time = 255s) ...
Presolve removed 493291 rows and 344375 columns (presolve time = 260s) ...
Presolve removed 493291 rows and 344375 columns (presolve time = 265s) ...
Presolve removed 493291 rows and 344375 columns (presolve time = 270s) ...
Presolve removed 493291 rows and 344375 columns (presolve time = 275s) ...
Presolve removed 493291 rows and 344375 columns (presolve time = 280s) ...
Presolve removed 493291 rows and 344375 columns (presolve time = 285s) ...
Presolve removed 493291 rows and 344375 columns (presolve time = 290s) ...
Presolve removed 493291 rows and 344375 columns (presolve time = 295s) ...
Presolve removed 493291 rows and 344375 columns (presolve time = 300s) ...
Presolve removed 493291 rows and 344375 columns (presolve time = 305s) ...
Presolve removed 493291 rows and 344375 columns (presolve time = 310s) ...
Presolve removed 493291 rows and 344375 columns (presolve time = 315s) ...
Presolve removed 493291 rows and 344375 columns (presolve time = 320s) ...
Presolve removed 493291 rows and 344375 columns (presolve time = 325s) ...
Presolve removed 493291 rows and 344375 columns (presolve time = 330s) ...
Presolve removed 493291 rows and 344375 columns (presolve time = 335s) ...
Presolve removed 493291 rows and 344375 columns (presolve time = 340s) ...
Presolve removed 493291 rows and 344375 columns (presolve time = 345s) ...
Presolve removed 493291 rows and 344375 columns (presolve time = 350s) ...
Presolve removed 493291 rows and 344375 columns (presolve time = 355s) ...
Presolve removed 493291 rows and 344375 columns (presolve time = 360s) ...
Presolve removed 493291 rows and 344375 columns (presolve time = 365s) ...
Presolve removed 493291 rows and 344375 columns (presolve time = 370s) ...
Presolve removed 493291 rows and 344375 columns (presolve time = 375s) ...
Presolve removed 493291 rows and 344375 columns (presolve time = 380s) ...
Presolve removed 493291 rows and 344375 columns (presolve time = 385s) ...
Presolve removed 493291 rows and 344375 columns (presolve time = 390s) ...
Presolve removed 493291 rows and 344375 columns (presolve time = 395s) ...
Presolve removed 493291 rows and 344375 columns (presolve time = 400s) ...
Presolve removed 493291 rows and 344375 columns (presolve time = 405s) ...
Presolve removed 493291 rows and 344375 columns (presolve time = 410s) ...
Presolve removed 493291 rows and 344375 columns (presolve time = 415s) ...
Presolve removed 493291 rows and 344375 columns (presolve time = 420s) ...
Presolve removed 493291 rows and 344375 columns (presolve time = 425s) ...
Presolve removed 493291 rows and 344375 columns (presolve time = 430s) ...
Presolve removed 493291 rows and 344375 columns (presolve time = 435s) ...
Presolve removed 493291 rows and 344375 columns (presolve time = 440s) ...
Presolve removed 493291 rows and 344375 columns (presolve time = 445s) ...
Presolve removed 493291 rows and 344375 columns (presolve time = 450s) ...
Presolve removed 493291 rows and 344375 columns (presolve time = 455s) ...
Presolve removed 493291 rows and 344375 columns (presolve time = 460s) ...
Presolve removed 493291 rows and 344375 columns (presolve time = 465s) ...
Presolve removed 493291 rows and 344375 columns (presolve time = 470s) ...
Presolve removed 493291 rows and 344375 columns (presolve time = 475s) ...
Presolve removed 493291 rows and 344375 columns (presolve time = 480s) ...
Presolve removed 493291 rows and 344375 columns (presolve time = 485s) ...
Presolve removed 493291 rows and 344375 columns (presolve time = 490s) ...
Presolve removed 493291 rows and 344375 columns (presolve time = 495s) ...
Presolve removed 493291 rows and 344375 columns (presolve time = 500s) ...
Presolve removed 493291 rows and 344375 columns (presolve time = 505s) ...
Presolve removed 493291 rows and 344375 columns (presolve time = 510s) ...
Presolve removed 493291 rows and 344375 columns (presolve time = 515s) ...
Presolve removed 493291 rows and 344375 columns (presolve time = 520s) ...
Presolve removed 493291 rows and 344375 columns (presolve time = 525s) ...
Presolve removed 493291 rows and 344375 columns (presolve time = 530s) ...
Presolve removed 493291 rows and 344375 columns (presolve time = 535s) ...
Presolve removed 493291 rows and 344375 columns (presolve time = 540s) ...
Presolve removed 493291 rows and 344375 columns (presolve time = 545s) ...
Presolve removed 493291 rows and 344375 columns (presolve time = 550s) ...
Presolve removed 493291 rows and 344375 columns (presolve time = 555s) ...
Presolve removed 493291 rows and 344375 columns (presolve time = 560s) ...
Presolve removed 493291 rows and 344375 columns (presolve time = 565s) ...
Presolve removed 493291 rows and 344375 columns (presolve time = 570s) ...
Presolve removed 493291 rows and 344375 columns (presolve time = 575s) ...
Presolve removed 493291 rows and 344375 columns (presolve time = 580s) ...
Presolve removed 493291 rows and 344375 columns (presolve time = 585s) ...
Presolve removed 493291 rows and 344375 columns (presolve time = 590s) ...
Presolve removed 493291 rows and 344375 columns (presolve time = 595s) ...
Presolve removed 493291 rows and 344375 columns (presolve time = 600s) ...
Presolve removed 493291 rows and 344375 columns (presolve time = 605s) ...
Presolve removed 493291 rows and 344375 columns (presolve time = 610s) ...
Presolve removed 493291 rows and 344375 columns (presolve time = 615s) ...
Presolve removed 509022 rows and 368086 columns (presolve time = 624s) ...
Presolve removed 510864 rows and 370000 columns (presolve time = 626s) ...
Presolve removed 535993 rows and 381663 columns (presolve time = 633s) ...
Presolve removed 535993 rows and 381663 columns (presolve time = 637s) ...
Presolve removed 548292 rows and 381663 columns (presolve time = 642s) ...
Presolve removed 548292 rows and 381663 columns (presolve time = 646s) ...
Presolve removed 548292 rows and 381663 columns (presolve time = 658s) ...
Presolve removed 548292 rows and 381663 columns (presolve time = 660s) ...
Presolve removed 548292 rows and 381663 columns (presolve time = 665s) ...
Presolve removed 548292 rows and 381663 columns (presolve time = 670s) ...
Presolve removed 548292 rows and 381663 columns (presolve time = 675s) ...
Presolve removed 548292 rows and 381663 columns (presolve time = 680s) ...
Presolve removed 548292 rows and 381663 columns (presolve time = 685s) ...
Presolve removed 548292 rows and 381663 columns (presolve time = 690s) ...
Presolve removed 548292 rows and 381663 columns (presolve time = 695s) ...
Presolve removed 548292 rows and 381663 columns (presolve time = 700s) ...
Presolve removed 548292 rows and 381663 columns (presolve time = 705s) ...
Presolve removed 548292 rows and 381663 columns (presolve time = 710s) ...
Presolve removed 548292 rows and 381663 columns (presolve time = 715s) ...
Presolve removed 548292 rows and 381663 columns (presolve time = 720s) ...
Presolve removed 548292 rows and 381663 columns (presolve time = 725s) ...
Presolve removed 548292 rows and 381663 columns (presolve time = 730s) ...
Presolve removed 548292 rows and 381663 columns (presolve time = 735s) ...
Presolve removed 548292 rows and 381663 columns (presolve time = 740s) ...
Presolve removed 548292 rows and 381663 columns (presolve time = 745s) ...
Presolve removed 548292 rows and 381663 columns (presolve time = 750s) ...
Presolve removed 548292 rows and 381663 columns (presolve time = 755s) ...
Presolve removed 548292 rows and 381663 columns (presolve time = 760s) ...
Presolve removed 548292 rows and 381663 columns (presolve time = 765s) ...
Presolve removed 548292 rows and 381663 columns (presolve time = 770s) ...
Presolve removed 548292 rows and 381663 columns (presolve time = 775s) ...
Presolve removed 548292 rows and 381663 columns (presolve time = 780s) ...
Presolve removed 548292 rows and 381663 columns (presolve time = 785s) ...
Presolve removed 548292 rows and 381663 columns (presolve time = 790s) ...
Presolve removed 548292 rows and 381663 columns (presolve time = 795s) ...
Presolve removed 548292 rows and 381663 columns (presolve time = 800s) ...
Presolve removed 548292 rows and 381663 columns (presolve time = 805s) ...
Presolve removed 548292 rows and 381663 columns (presolve time = 810s) ...
Presolve removed 548292 rows and 381663 columns (presolve time = 815s) ...
Presolve removed 548292 rows and 381663 columns (presolve time = 820s) ...
Presolve removed 548292 rows and 381663 columns (presolve time = 825s) ...
Presolve removed 548292 rows and 381663 columns (presolve time = 830s) ...
Presolve removed 548292 rows and 381663 columns (presolve time = 835s) ...
Presolve removed 548292 rows and 381663 columns (presolve time = 840s) ...
Presolve removed 548292 rows and 381663 columns (presolve time = 845s) ...
Presolve removed 548292 rows and 381663 columns (presolve time = 850s) ...
Presolve removed 548292 rows and 381663 columns (presolve time = 855s) ...
Presolve removed 548292 rows and 381663 columns (presolve time = 860s) ...
Presolve removed 548292 rows and 381663 columns (presolve time = 865s) ...
Presolve removed 548292 rows and 381663 columns (presolve time = 870s) ...
Presolve removed 548292 rows and 381663 columns (presolve time = 875s) ...
Presolve removed 548292 rows and 381663 columns (presolve time = 880s) ...
Presolve removed 548292 rows and 381663 columns (presolve time = 885s) ...
Presolve removed 548292 rows and 381663 columns (presolve time = 890s) ...
Presolve removed 548292 rows and 381663 columns (presolve time = 895s) ...
Presolve removed 548292 rows and 381663 columns (presolve time = 900s) ...
Presolve removed 548292 rows and 381663 columns (presolve time = 905s) ...
Presolve removed 548292 rows and 381663 columns (presolve time = 910s) ...
Presolve removed 548292 rows and 381663 columns (presolve time = 915s) ...
Presolve removed 548292 rows and 381663 columns (presolve time = 920s) ...
Presolve removed 548292 rows and 381663 columns (presolve time = 925s) ...
Presolve removed 548292 rows and 381663 columns (presolve time = 930s) ...
Presolve removed 548292 rows and 381663 columns (presolve time = 935s) ...
Presolve removed 548292 rows and 381663 columns (presolve time = 940s) ...
Presolve removed 548292 rows and 381663 columns (presolve time = 945s) ...
Presolve removed 548292 rows and 381663 columns (presolve time = 950s) ...
Presolve removed 548292 rows and 381663 columns (presolve time = 955s) ...
Presolve removed 548292 rows and 381663 columns (presolve time = 960s) ...
Presolve removed 548292 rows and 381663 columns (presolve time = 965s) ...
Presolve removed 548292 rows and 381663 columns (presolve time = 970s) ...
Presolve removed 548292 rows and 381663 columns (presolve time = 975s) ...
Presolve removed 553894 rows and 386337 columns (presolve time = 1095s) ...
Presolve removed 553894 rows and 386337 columns
Presolve time: 1094.96s
Presolved: 3936918 rows, 2251070 columns, 14378166 nonzeros
Variable types: 579825 continuous, 1671245 integer (1671245 binary)
Found heuristic solution: objective 13908.833333
Optimize a model with 3936918 rows, 2251070 columns and 14378166 nonzeros
Coefficient statistics:
  Matrix range    [8e-01, 9e+02]
  Objective range [1e+00, 7e+02]
  Bounds range    [8e-01, 4e+01]
  RHS range       [1e+00, 8e+03]

Deterministic concurrent LP optimizer: primal simplex, dual simplex, and barrier
Showing barrier log only...

Presolve removed 0 rows and 0 columns (presolve time = 9s) ...
